
n_res = 8;
rcap = [106, 100, 93, 95, 1800, 1680, 1656, 1800];
rtype = [1, 1, 1, 1, 2, 2, 2, 2];
n_tasks = 100;
modes =  [{1, 2, 3}, {4, 5, 6}, {7, 8, 9}, {10, 11, 12}, {13, 14, 15}, {16, 17, 18}, {19, 20, 21}, {22, 23, 24}, {25, 26, 27}, {28, 29, 30}, {31, 32, 33}, {34, 35, 36}, {37, 38, 39}, {40, 41, 42}, {43, 44, 45}, {46, 47, 48}, {49, 50, 51}, {52, 53, 54}, {55, 56, 57}, {58, 59, 60}, {61, 62, 63}, {64, 65, 66}, {67, 68, 69}, {70, 71, 72}, {73, 74, 75}, {76, 77, 78}, {79, 80, 81}, {82, 83, 84}, {85, 86, 87}, {88, 89, 90}, {91, 92, 93}, {94, 95, 96}, {97, 98, 99}, {100, 101, 102}, {103, 104, 105}, {106, 107, 108}, {109, 110, 111}, {112, 113, 114}, {115, 116, 117}, {118, 119, 120}, {121, 122, 123}, {124, 125, 126}, {127, 128, 129}, {130, 131, 132}, {133, 134, 135}, {136, 137, 138}, {139, 140, 141}, {142, 143, 144}, {145, 146, 147}, {148, 149, 150}, {151, 152, 153}, {154, 155, 156}, {157, 158, 159}, {160, 161, 162}, {163, 164, 165}, {166, 167, 168}, {169, 170, 171}, {172, 173, 174}, {175, 176, 177}, {178, 179, 180}, {181, 182, 183}, {184, 185, 186}, {187, 188, 189}, {190, 191, 192}, {193, 194, 195}, {196, 197, 198}, {199, 200, 201}, {202, 203, 204}, {205, 206, 207}, {208, 209, 210}, {211, 212, 213}, {214, 215, 216}, {217, 218, 219}, {220, 221, 222}, {223, 224, 225}, {226, 227, 228}, {229, 230, 231}, {232, 233, 234}, {235, 236, 237}, {238, 239, 240}, {241, 242, 243}, {244, 245, 246}, {247, 248, 249}, {250, 251, 252}, {253, 254, 255}, {256, 257, 258}, {259, 260, 261}, {262, 263, 264}, {265, 266, 267}, {268, 269, 270}, {271, 272, 273}, {274, 275, 276}, {277, 278, 279}, {280, 281, 282}, {283, 284, 285}, {286, 287, 288}, {289, 290, 291}, {292, 293, 294}, {295, 296, 297}, {298, 299, 300}];
succ =  [{48, 46, 40, 36, 35, 32, 29, 26, 21, 7}, {48, 46, 40, 37, 36, 35, 33, 28, 27, 20, 18, 17}, {48, 46, 40, 32, 27, 26, 24, 23, 7}, {68, 53, 46, 43, 35, 30, 29, 26, 23, 22}, {48, 44, 41, 40, 39, 37, 36, 32, 30, 29, 25}, {68, 54, 48, 46, 43, 33, 29, 27, 26, 20}, {57, 49, 43, 33, 28, 20, 18}, {57, 53, 49, 48, 45, 44, 42, 41, 30, 29, 27, 25}, {61, 57, 49, 48, 35, 33, 31, 29, 28, 23}, {69, 68, 61, 57, 54, 53, 48, 45, 43, 41, 33, 31, 30, 29, 27}, {100, 61, 54, 49, 46, 45, 44, 43, 41, 33, 27, 24}, {57, 56, 54, 50, 49, 46, 45, 44, 43, 42, 41, 38, 36, 31, 30}, {58, 57, 50, 49, 46, 42, 41, 39, 37, 36, 34, 30}, {68, 61, 57, 54, 50, 49, 48, 44, 37, 31, 30, 27}, {68, 67, 62, 61, 57, 54, 53, 52, 47, 41, 39, 35, 32, 29}, {62, 58, 57, 53, 52, 50, 49, 47, 44, 41, 39, 25}, {69, 68, 67, 62, 61, 57, 56, 53, 52, 49, 47, 44, 43, 41, 29}, {100, 69, 67, 61, 54, 53, 50, 45, 44, 42, 41, 39, 30}, {100, 69, 62, 60, 58, 57, 54, 53, 50, 49, 47, 41, 33}, {69, 61, 58, 50, 45, 41, 31, 30}, {73, 67, 62, 61, 59, 50, 45, 44, 43, 27}, {67, 66, 62, 61, 59, 57, 45, 42, 27}, {73, 69, 67, 62, 54, 50, 47, 41, 39}, {75, 73, 70, 69, 68, 67, 66, 64, 63, 62, 59, 58, 56, 53, 52, 50}, {75, 68, 67, 60, 59, 54, 43, 35}, {73, 66, 64, 63, 62, 59, 51, 49, 47, 44}, {77, 75, 70, 63, 58, 55, 52, 39}, {99, 97, 77, 75, 73, 68, 67, 66, 64, 55, 53, 52, 51}, {99, 98, 96, 81, 75, 74, 73, 72, 70, 64, 58, 50}, {97, 81, 80, 73, 62, 59, 55, 52, 47}, {99, 98, 97, 96, 82, 77, 73, 72, 70, 67, 66, 55, 51}, {98, 81, 77, 75, 72, 60, 55, 43}, {81, 75, 72, 66, 65, 59, 42}, {81, 77, 75, 60, 59, 56, 43}, {100, 99, 98, 97, 77, 73, 72, 70, 69, 66, 55, 51}, {99, 98, 97, 96, 72, 68, 66, 65, 61, 53, 51}, {100, 99, 98, 97, 81, 73, 69, 66, 60, 55, 51}, {99, 82, 81, 73, 72, 70, 68, 64, 61, 60, 51}, {99, 97, 81, 72, 64, 60, 56, 51}, {95, 94, 82, 77, 76, 65, 64, 58, 57}, {99, 98, 75, 72, 70, 66, 65, 63, 59}, {99, 98, 97, 82, 73, 64, 51}, {99, 97, 96, 70, 64, 51}, {99, 97, 94, 82, 81, 80, 79, 77, 74, 71, 60}, {98, 97, 94, 77, 76, 75, 64, 60}, {98, 97, 77, 66, 51}, {96, 94, 93, 91, 82, 78, 77, 76, 74, 72, 70}, {99, 98, 97, 93, 92, 90, 88, 80, 72, 71, 67}, {98, 96, 95, 87, 80, 74, 55}, {97, 87, 82, 80, 77, 55}, {94, 93, 90, 87, 80, 79, 76, 74, 71}, {98, 96, 95, 94, 90, 89, 88, 72, 71}, {94, 93, 90, 89, 85, 81, 80, 76, 71}, {96, 92, 88, 84, 80, 79, 78, 70}, {94, 90, 79, 76, 71, 65}, {98, 96, 95, 94, 93, 92, 91, 89, 84, 82, 80, 79}, {99, 98, 97, 90, 88, 79, 75, 74}, {97, 93, 89, 88, 87, 79, 71}, {96, 94, 90, 85, 76, 71}, {96, 95, 93, 91, 90, 89, 88, 87, 86, 84, 78}, {95, 92, 91, 89, 87, 84, 83, 79, 77}, {99, 94, 89, 88, 87, 86, 85, 84, 83}, {93, 89, 88, 87, 84, 80, 79}, {92, 89, 85, 71}, {93, 92, 88, 86, 85, 84, 78}, {95, 89, 87, 86, 85, 84, 83}, {94, 89, 86, 85, 84, 81}, {95, 93, 87, 85, 84, 83}, {92, 87, 86, 84, 78}, {95, 90, 89, 87, 86}, {91, 86, 84, 78}, {87, 84, 83, 79}, {89, 87, 86, 85}, {86, 85, 84}, {87, 80}, {92, 88}, {90, 86}, {83}, {85}, {83}, {87}, {85}, {}, {}, {}, {}, {}, {}, {}, {}, {}, {}, {}, {}, {}, {}, {}, {}, {}, {}];
n_opt = 300;
dur = [5, 18, 29, 3, 12, 15, 7, 17, 21, 5, 16, 17, 1, 6, 15, 6, 14, 22, 18, 21, 28, 14, 20, 26, 7, 18, 27, 5, 20, 21, 8, 9, 10, 11, 18, 19, 12, 17, 20, 8, 17, 19, 8, 12, 17, 2, 19, 20, 9, 13, 19, 1, 4, 9, 1, 2, 26, 4, 5, 22, 10, 20, 30, 9, 25, 27, 9, 13, 24, 4, 5, 20, 5, 13, 24, 12, 21, 24, 3, 4, 23, 7, 10, 27, 5, 8, 24, 13, 21, 24, 2, 11, 18, 7, 10, 15, 8, 22, 27, 8, 9, 11, 7, 8, 30, 3, 13, 16, 3, 11, 12, 3, 11, 15, 23, 25, 30, 1, 8, 24, 10, 13, 16, 4, 14, 29, 1, 15, 21, 10, 11, 25, 10, 18, 23, 5, 15, 20, 14, 21, 25, 7, 12, 15, 2, 21, 26, 3, 7, 18, 6, 7, 16, 2, 24, 25, 5, 10, 29, 6, 13, 30, 8, 11, 23, 6, 19, 28, 9, 13, 29, 2, 3, 24, 9, 17, 26, 9, 10, 22, 3, 27, 30, 13, 14, 28, 3, 23, 29, 24, 25, 27, 4, 26, 29, 5, 6, 9, 10, 12, 16, 16, 17, 18, 7, 21, 22, 3, 4, 11, 2, 16, 29, 6, 7, 8, 22, 28, 29, 10, 11, 22, 6, 17, 26, 1, 7, 12, 19, 27, 29, 5, 16, 19, 7, 21, 22, 13, 17, 19, 12, 13, 19, 17, 27, 30, 5, 6, 24, 4, 13, 28, 3, 15, 18, 11, 14, 30, 11, 24, 27, 5, 10, 28, 1, 3, 28, 5, 7, 8, 2, 3, 25, 12, 28, 29, 3, 8, 9, 13, 14, 25, 21, 23, 24, 2, 10, 30, 1, 26, 29, 3, 15, 24, 6, 9, 22, 4, 5, 17];
rreq = [|15, 11, 6, 27, 26, 26, 25, 23, 20, 26, 23, 21, 26, 13, 11, 15, 10, 7, 18, 15, 14, 18, 12, 11, 7, 7, 6, 29, 19, 17, 27, 27, 27, 18, 8, 7, 17, 16, 14, 24, 22, 21, 29, 25, 21, 9, 9, 9, 20, 19, 7, 7, 5, 5, 27, 13, 8, 16, 13, 10, 6, 6, 3, 14, 11, 5, 24, 20, 14, 4, 3, 3, 9, 5, 5, 28, 23, 12, 28, 19, 18, 16, 9, 6, 10, 9, 8, 16, 13, 8, 23, 12, 7, 20, 17, 17, 25, 17, 14, 13, 9, 6, 29, 21, 17, 22, 22, 22, 24, 22, 16, 26, 23, 21, 28, 20, 17, 11, 8, 5, 24, 24, 23, 28, 27, 26, 26, 19, 8, 20, 16, 12, 20, 14, 9, 21, 16, 13, 27, 21, 20, 17, 15, 12, 14, 10, 2, 26, 26, 24, 23, 14, 11, 24, 22, 22, 9, 5, 5, 19, 16, 15, 9, 7, 6, 19, 19, 19, 13, 11, 10, 8, 6, 5, 20, 10, 1, 16, 12, 1, 5, 4, 3, 8, 8, 7, 26, 25, 24, 8, 8, 6, 15, 14, 12, 10, 9, 3, 25, 22, 9, 21, 13, 8, 11, 4, 3, 15, 10, 9, 16, 16, 16, 28, 28, 25, 15, 14, 13, 14, 12, 7, 4, 2, 2, 22, 13, 5, 25, 22, 19, 14, 13, 9, 22, 13, 12, 15, 14, 12, 24, 16, 10, 16, 16, 16, 23, 22, 21, 19, 14, 13, 8, 6, 2, 8, 5, 3, 15, 7, 3, 18, 11, 1, 28, 28, 26, 14, 12, 12, 28, 25, 24, 16, 15, 15, 24, 21, 11, 19, 12, 12, 13, 13, 13, 11, 5, 2, 29, 23, 19, 15, 13, 11, 12, 10, 10, 27, 17, 14
 |25, 19, 8, 13, 13, 9, 25, 24, 24, 21, 21, 12, 17, 9, 8, 23, 20, 17, 21, 19, 18, 23, 21, 16, 19, 14, 12, 23, 18, 14, 22, 18, 10, 17, 9, 9, 15, 7, 1, 9, 9, 5, 21, 16, 11, 26, 25, 25, 17, 15, 10, 26, 18, 8, 14, 14, 14, 15, 13, 11, 9, 6, 6, 23, 19, 8, 22, 19, 6, 17, 15, 13, 15, 9, 9, 21, 16, 14, 22, 20, 16, 16, 11, 9, 19, 12, 10, 15, 13, 13, 17, 15, 15, 15, 12, 11, 18, 16, 13, 24, 20, 19, 17, 16, 12, 21, 15, 3, 9, 8, 7, 17, 12, 5, 7, 6, 4, 13, 7, 5, 21, 17, 17, 20, 19, 17, 8, 6, 6, 25, 23, 23, 1, 1, 1, 24, 23, 23, 29, 17, 8, 20, 15, 8, 25, 17, 13, 20, 20, 20, 29, 26, 25, 17, 14, 13, 11, 11, 6, 21, 18, 15, 17, 11, 5, 13, 13, 13, 23, 20, 19, 26, 16, 10, 8, 5, 3, 17, 15, 10, 15, 15, 10, 15, 13, 11, 28, 24, 23, 20, 19, 14, 19, 18, 16, 26, 16, 13, 29, 20, 8, 21, 16, 7, 9, 8, 8, 23, 22, 22, 8, 7, 3, 14, 11, 5, 14, 13, 12, 2, 2, 2, 26, 25, 21, 27, 13, 10, 19, 17, 13, 24, 18, 12, 23, 12, 8, 20, 13, 6, 17, 11, 5, 16, 16, 16, 17, 13, 4, 26, 16, 5, 27, 15, 7, 5, 5, 5, 9, 9, 9, 16, 14, 14, 22, 15, 9, 21, 13, 7, 27, 27, 26, 24, 18, 11, 28, 27, 26, 30, 25, 23, 20, 15, 3, 28, 27, 27, 2, 2, 2, 12, 12, 12, 25, 15, 11, 22, 22, 18
 |8, 8, 7, 21, 19, 16, 17, 16, 16, 19, 16, 16, 21, 11, 5, 16, 16, 15, 15, 10, 8, 19, 7, 3, 2, 1, 1, 21, 21, 21, 16, 13, 6, 24, 24, 23, 20, 9, 6, 25, 24, 23, 28, 26, 25, 12, 10, 7, 18, 15, 13, 23, 23, 21, 8, 5, 5, 11, 10, 9, 7, 7, 7, 19, 15, 6, 16, 13, 11, 23, 16, 11, 26, 24, 18, 25, 18, 15, 11, 8, 4, 28, 24, 23, 20, 19, 19, 15, 10, 7, 27, 13, 8, 16, 13, 2, 9, 7, 6, 20, 18, 15, 10, 5, 5, 13, 12, 10, 17, 11, 9, 18, 15, 14, 4, 2, 2, 26, 19, 10, 19, 19, 19, 8, 6, 6, 25, 23, 20, 26, 19, 14, 27, 25, 24, 15, 13, 8, 17, 11, 10, 19, 14, 8, 25, 24, 24, 17, 15, 10, 11, 9, 8, 12, 12, 12, 24, 11, 7, 16, 13, 8, 15, 9, 6, 12, 8, 8, 25, 16, 8, 27, 24, 23, 12, 10, 7, 19, 17, 16, 23, 17, 14, 7, 7, 7, 17, 13, 11, 25, 19, 13, 10, 7, 6, 4, 3, 3, 27, 21, 20, 27, 25, 24, 25, 25, 24, 9, 8, 7, 20, 19, 17, 11, 7, 3, 29, 22, 19, 9, 8, 6, 13, 12, 12, 24, 23, 21, 19, 18, 18, 18, 16, 3, 4, 4, 4, 20, 10, 2, 26, 19, 15, 25, 25, 23, 18, 14, 1, 26, 16, 7, 22, 21, 20, 15, 8, 3, 7, 6, 6, 28, 12, 7, 21, 20, 20, 23, 15, 12, 7, 5, 4, 15, 9, 8, 22, 20, 18, 18, 15, 14, 27, 11, 10, 21, 10, 9, 15, 12, 9, 16, 14, 10, 15, 13, 10, 25, 22, 19
 |15, 12, 2, 23, 19, 12, 28, 27, 27, 9, 7, 6, 15, 15, 7, 5, 2, 1, 9, 8, 4, 11, 10, 10, 25, 18, 17, 9, 8, 8, 28, 18, 14, 17, 16, 14, 14, 14, 13, 5, 4, 4, 8, 8, 5, 10, 6, 5, 28, 27, 26, 24, 22, 22, 24, 17, 16, 26, 24, 18, 19, 15, 12, 26, 19, 13, 21, 15, 11, 17, 15, 6, 5, 4, 4, 15, 11, 10, 20, 16, 7, 25, 14, 5, 15, 14, 10, 21, 16, 16, 27, 25, 24, 16, 16, 8, 22, 12, 1, 25, 25, 24, 9, 5, 3, 25, 21, 12, 16, 15, 14, 19, 12, 10, 16, 10, 1, 11, 7, 4, 16, 9, 5, 20, 14, 12, 23, 15, 11, 17, 10, 8, 5, 5, 5, 14, 11, 7, 10, 7, 6, 12, 8, 4, 17, 17, 15, 8, 6, 3, 29, 27, 25, 8, 7, 7, 21, 20, 18, 29, 26, 24, 27, 25, 25, 11, 9, 9, 15, 14, 13, 29, 28, 27, 23, 17, 13, 24, 18, 17, 29, 29, 29, 18, 18, 18, 26, 24, 22, 26, 25, 24, 27, 22, 19, 13, 11, 6, 9, 8, 8, 24, 20, 16, 18, 17, 15, 14, 10, 4, 3, 3, 3, 21, 15, 10, 28, 17, 12, 28, 24, 19, 11, 11, 11, 19, 17, 16, 11, 10, 9, 18, 17, 17, 30, 13, 6, 23, 17, 16, 14, 14, 11, 17, 16, 16, 23, 19, 11, 14, 6, 5, 15, 14, 12, 23, 18, 7, 16, 13, 6, 24, 23, 23, 20, 19, 16, 19, 18, 17, 14, 11, 9, 14, 13, 12, 25, 22, 15, 28, 17, 16, 25, 19, 13, 13, 11, 9, 24, 22, 21, 17, 12, 7, 20, 16, 9, 17, 10, 8
 |22, 22, 18, 25, 15, 12, 29, 26, 24, 26, 22, 19, 14, 13, 11, 19, 12, 7, 24, 22, 21, 17, 15, 13, 23, 21, 18, 19, 16, 16, 22, 19, 17, 5, 5, 3, 23, 23, 19, 24, 13, 9, 5, 5, 5, 20, 19, 17, 7, 6, 3, 7, 5, 3, 20, 19, 18, 23, 23, 22, 26, 25, 24, 19, 15, 12, 28, 21, 16, 8, 7, 6, 25, 21, 21, 15, 13, 9, 19, 12, 5, 29, 24, 22, 27, 16, 14, 3, 2, 1, 18, 15, 13, 17, 12, 12, 30, 30, 30, 16, 14, 14, 24, 22, 17, 5, 5, 4, 9, 7, 5, 16, 15, 6, 20, 17, 15, 25, 25, 25, 28, 27, 26, 19, 16, 11, 17, 13, 8, 24, 18, 13, 17, 14, 13, 14, 10, 1, 9, 8, 8, 3, 2, 1, 22, 20, 19, 22, 18, 9, 23, 14, 12, 21, 21, 20, 22, 10, 8, 27, 26, 26, 12, 11, 9, 8, 5, 5, 14, 12, 12, 25, 21, 13, 27, 20, 17, 21, 20, 18, 12, 7, 4, 16, 11, 7, 23, 22, 22, 29, 19, 16, 25, 22, 11, 24, 23, 14, 23, 9, 4, 29, 28, 27, 23, 11, 6, 24, 21, 7, 20, 18, 15, 27, 25, 24, 20, 14, 11, 4, 2, 2, 26, 16, 9, 23, 21, 18, 28, 28, 28, 17, 13, 10, 22, 20, 17, 20, 19, 19, 24, 23, 17, 19, 16, 11, 12, 11, 11, 20, 16, 13, 20, 20, 20, 17, 14, 5, 25, 24, 21, 23, 22, 22, 21, 13, 10, 19, 13, 9, 22, 17, 14, 26, 18, 6, 18, 17, 14, 13, 11, 8, 12, 12, 10, 24, 19, 14, 27, 20, 19, 16, 8, 6, 27, 25, 16, 14, 6, 3
 |4, 3, 2, 20, 13, 8, 27, 27, 27, 24, 18, 2, 13, 10, 8, 19, 15, 13, 6, 4, 4, 13, 12, 12, 22, 21, 10, 21, 14, 11, 25, 24, 18, 22, 11, 5, 14, 7, 5, 15, 15, 14, 24, 19, 9, 5, 4, 3, 25, 24, 22, 25, 23, 23, 5, 4, 3, 27, 23, 21, 8, 8, 8, 26, 20, 8, 8, 5, 3, 18, 16, 16, 21, 21, 19, 23, 20, 19, 23, 23, 22, 29, 29, 29, 29, 24, 18, 14, 9, 5, 5, 4, 2, 13, 5, 3, 11, 8, 7, 16, 12, 8, 16, 14, 13, 30, 20, 1, 8, 7, 6, 21, 13, 9, 28, 14, 7, 23, 22, 20, 26, 24, 23, 20, 15, 13, 22, 17, 11, 16, 15, 9, 17, 12, 10, 27, 23, 22, 13, 12, 11, 8, 3, 1, 24, 22, 20, 26, 25, 24, 17, 14, 9, 25, 23, 18, 28, 17, 14, 10, 10, 8, 18, 16, 15, 9, 6, 5, 19, 10, 5, 26, 17, 11, 20, 12, 5, 18, 12, 3, 14, 11, 9, 8, 8, 7, 20, 15, 12, 26, 26, 25, 9, 9, 7, 21, 17, 14, 19, 15, 10, 9, 9, 5, 24, 23, 23, 14, 11, 11, 26, 15, 10, 20, 15, 5, 20, 15, 12, 10, 9, 6, 25, 19, 13, 20, 16, 11, 26, 12, 10, 19, 12, 7, 24, 23, 23, 24, 14, 13, 13, 12, 12, 7, 6, 6, 17, 14, 6, 14, 9, 5, 27, 20, 16, 23, 19, 18, 16, 13, 6, 29, 18, 17, 16, 13, 13, 18, 11, 7, 5, 4, 4, 24, 23, 18, 22, 17, 5, 19, 16, 16, 27, 22, 21, 16, 12, 8, 29, 23, 15, 12, 10, 9, 22, 22, 22, 10, 10, 8
 |28, 23, 21, 30, 17, 10, 26, 24, 23, 28, 24, 16, 17, 16, 15, 28, 28, 25, 26, 20, 20, 24, 21, 21, 14, 12, 11, 7, 6, 4, 1, 1, 1, 12, 10, 8, 24, 23, 19, 15, 7, 5, 22, 21, 21, 12, 9, 6, 13, 7, 4, 14, 14, 13, 30, 24, 24, 10, 8, 8, 11, 9, 6, 10, 9, 8, 16, 15, 15, 6, 6, 6, 9, 8, 7, 28, 28, 28, 19, 16, 8, 12, 7, 4, 10, 10, 7, 24, 23, 23, 24, 20, 13, 30, 20, 16, 28, 27, 26, 22, 19, 18, 22, 16, 10, 18, 13, 12, 12, 9, 6, 10, 5, 4, 8, 8, 8, 15, 13, 10, 17, 11, 6, 23, 20, 18, 19, 13, 5, 27, 20, 15, 6, 5, 3, 1, 1, 1, 19, 19, 16, 24, 23, 17, 16, 16, 12, 28, 24, 22, 20, 12, 4, 21, 20, 13, 2, 1, 1, 19, 10, 8, 19, 18, 15, 19, 18, 17, 12, 12, 12, 16, 13, 12, 22, 22, 20, 15, 12, 6, 13, 10, 8, 23, 19, 17, 15, 13, 6, 11, 10, 10, 16, 13, 13, 16, 14, 11, 20, 13, 11, 11, 7, 6, 25, 22, 17, 25, 22, 18, 28, 26, 25, 28, 19, 17, 20, 13, 11, 21, 21, 17, 19, 16, 11, 25, 19, 19, 3, 3, 3, 12, 8, 4, 23, 22, 16, 25, 19, 15, 18, 15, 12, 26, 22, 19, 6, 5, 3, 19, 12, 10, 19, 18, 15, 14, 9, 8, 25, 25, 25, 13, 10, 10, 12, 10, 8, 24, 21, 17, 16, 14, 12, 24, 22, 18, 22, 15, 13, 26, 15, 11, 14, 13, 9, 15, 15, 14, 17, 12, 2, 12, 9, 7, 14, 14, 11, 23, 20, 19
 |10, 9, 8, 11, 8, 5, 28, 15, 10, 8, 8, 8, 23, 20, 12, 27, 25, 23, 24, 12, 8, 3, 2, 2, 23, 17, 15, 24, 23, 20, 4, 4, 3, 30, 30, 30, 15, 11, 3, 18, 10, 6, 27, 25, 22, 10, 9, 6, 19, 15, 12, 9, 7, 5, 27, 27, 27, 18, 17, 7, 25, 23, 21, 19, 11, 5, 11, 11, 11, 23, 21, 19, 26, 25, 24, 29, 28, 28, 16, 10, 6, 10, 8, 8, 28, 14, 5, 20, 14, 10, 23, 23, 21, 11, 11, 11, 26, 18, 15, 27, 24, 23, 29, 25, 24, 19, 17, 12, 14, 9, 3, 24, 21, 15, 19, 19, 19, 12, 8, 6, 3, 3, 2, 24, 23, 17, 19, 14, 7, 15, 13, 11, 21, 9, 8, 24, 21, 8, 27, 20, 16, 22, 17, 11, 10, 10, 9, 27, 20, 12, 29, 28, 28, 26, 23, 22, 25, 24, 18, 15, 13, 11, 15, 14, 8, 21, 20, 13, 25, 24, 19, 23, 13, 8, 19, 18, 17, 29, 26, 22, 29, 29, 28, 23, 18, 13, 16, 12, 11, 18, 17, 4, 5, 4, 3, 15, 13, 8, 16, 14, 14, 20, 16, 2, 10, 8, 3, 28, 26, 26, 26, 25, 23, 20, 13, 10, 12, 12, 8, 25, 17, 12, 17, 16, 14, 23, 17, 14, 20, 11, 6, 24, 22, 21, 25, 18, 16, 26, 21, 20, 29, 17, 11, 12, 7, 3, 16, 11, 7, 20, 9, 3, 17, 8, 6, 30, 26, 25, 18, 17, 17, 8, 6, 3, 18, 18, 16, 20, 19, 16, 30, 28, 28, 11, 11, 9, 10, 7, 5, 29, 14, 5, 28, 22, 17, 26, 21, 18, 17, 16, 15, 29, 17, 9, 24, 19, 8, 2, 1, 1|];